45
0 1 2 1 3 4 5 3 6 4 7 5 8 9 10 11 12 6 13 11 14 2 15 7 16 17 18 19 13 20 21 9 6 16 15 22 14 19 3 17 4 23 18 10 21 24 8 25 26 27 23 8 1 28 29 30 22 26 31 28 27 32 33 34 32 27 17 15 12 35 36 29 20 37 38 34 39 37 0 40 33 30 41 40 25 25 41 42 10 24 38 39 43 31 42 35 37 44 39 43 
